c "776997.clq"
p edge 100 1344
e 1 17
e 1 18
e 1 19
e 1 20
e 1 21
e 1 22
e 1 23
e 1 24
e 1 25
e 1 27
e 1 30
e 1 31
e 1 32
e 1 35
e 1 36
e 1 46
e 1 52
e 1 54
e 1 57
e 1 67
e 1 74
e 1 81
e 1 90
e 1 93
e 1 94
e 2 17
e 2 18
e 2 19
e 2 21
e 2 22
e 2 25
e 2 26
e 2 29
e 2 30
e 2 31
e 2 32
e 2 45
e 2 65
e 2 82
e 2 83
e 2 87
e 3 17
e 3 18
e 3 19
e 3 20
e 3 21
e 3 22
e 3 23
e 3 24
e 3 28
e 3 38
e 3 39
e 3 44
e 3 56
e 3 62
e 3 67
e 3 68
e 3 81
e 3 83
e 3 84
e 4 17
e 4 18
e 4 19
e 4 21
e 4 23
e 4 24
e 4 25
e 4 26
e 4 29
e 4 32
e 4 37
e 4 40
e 4 52
e 4 60
e 4 63
e 4 65
e 4 66
e 4 68
e 4 85
e 4 96
e 5 17
e 5 18
e 5 19
e 5 20
e 5 21
e 5 22
e 5 23
e 5 25
e 5 26
e 5 29
e 5 30
e 5 38
e 5 39
e 5 42
e 5 44
e 5 46
e 5 48
e 5 51
e 5 59
e 5 66
e 5 79
e 5 82
e 5 86
e 5 87
e 5 88
e 5 92
e 6 17
e 6 18
e 6 19
e 6 20
e 6 21
e 6 22
e 6 23
e 6 25
e 6 26
e 6 27
e 6 28
e 6 29
e 6 31
e 6 33
e 6 38
e 6 39
e 6 40
e 6 44
e 6 45
e 6 46
e 6 48
e 6 51
e 6 57
e 6 58
e 6 60
e 6 61
e 6 62
e 6 65
e 6 69
e 6 70
e 6 72
e 6 86
e 6 95
e 6 98
e 6 100
e 7 17
e 7 18
e 7 19
e 7 20
e 7 21
e 7 22
e 7 24
e 7 25
e 7 28
e 7 29
e 7 30
e 7 31
e 7 34
e 7 41
e 7 42
e 7 45
e 7 46
e 7 49
e 7 52
e 7 54
e 7 55
e 7 61
e 7 62
e 7 64
e 7 69
e 7 70
e 7 77
e 7 83
e 7 84
e 7 87
e 7 98
e 8 17
e 8 20
e 8 21
e 8 22
e 8 23
e 8 24
e 8 25
e 8 26
e 8 27
e 8 28
e 8 31
e 8 33
e 8 34
e 8 35
e 8 37
e 8 46
e 8 49
e 8 64
e 8 76
e 8 81
e 8 82
e 8 84
e 8 88
e 8 91
e 8 93
e 8 96
e 9 17
e 9 18
e 9 19
e 9 22
e 9 23
e 9 27
e 9 31
e 9 37
e 9 47
e 9 68
e 9 90
e 9 100
e 10 17
e 10 18
e 10 19
e 10 20
e 10 24
e 10 27
e 10 32
e 10 38
e 10 43
e 10 50
e 10 62
e 10 70
e 11 17
e 11 18
e 11 19
e 11 20
e 11 21
e 11 23
e 11 25
e 11 27
e 11 31
e 11 32
e 11 36
e 11 43
e 11 45
e 11 46
e 11 51
e 11 56
e 11 58
e 11 61
e 11 63
e 11 64
e 11 72
e 11 73
e 11 77
e 11 84
e 12 17
e 12 18
e 12 20
e 12 23
e 12 35
e 12 76
e 13 17
e 13 18
e 13 19
e 13 20
e 13 22
e 13 32
e 13 34
e 13 36
e 13 43
e 13 45
e 13 46
e 13 52
e 13 54
e 13 58
e 13 63
e 13 64
e 13 69
e 13 74
e 13 78
e 13 83
e 13 88
e 13 92
e 13 96
e 14 17
e 14 18
e 14 19
e 14 20
e 14 21
e 14 22
e 14 23
e 14 24
e 14 26
e 14 27
e 14 28
e 14 29
e 14 30
e 14 31
e 14 32
e 14 33
e 14 35
e 14 36
e 14 37
e 14 38
e 14 43
e 14 46
e 14 49
e 14 51
e 14 60
e 14 71
e 14 78
e 14 81
e 14 100
e 15 17
e 15 18
e 15 19
e 15 20
e 15 21
e 15 24
e 15 25
e 15 28
e 15 30
e 15 32
e 15 33
e 15 47
e 15 51
e 15 53
e 15 55
e 15 56
e 15 65
e 15 82
e 15 84
e 15 87
e 15 98
e 16 17
e 16 18
e 16 19
e 16 20
e 16 21
e 16 22
e 16 24
e 16 26
e 16 27
e 16 28
e 16 29
e 16 32
e 16 35
e 16 36
e 16 37
e 16 38
e 16 41
e 16 42
e 16 51
e 16 53
e 16 57
e 16 61
e 16 62
e 16 70
e 16 81
e 16 83
e 17 18
e 17 19
e 17 20
e 17 21
e 17 22
e 17 23
e 17 24
e 17 25
e 17 26
e 17 27
e 17 28
e 17 29
e 17 30
e 17 31
e 17 33
e 17 34
e 17 35
e 17 36
e 17 37
e 17 40
e 17 41
e 17 42
e 17 45
e 17 49
e 17 50
e 17 51
e 17 52
e 17 55
e 17 56
e 17 57
e 17 58
e 17 59
e 17 60
e 17 61
e 17 62
e 17 66
e 17 67
e 17 71
e 17 73
e 17 74
e 17 76
e 17 78
e 17 80
e 17 85
e 17 86
e 17 87
e 17 89
e 17 95
e 17 96
e 17 97
e 17 98
e 17 100
e 18 19
e 18 20
e 18 21
e 18 22
e 18 23
e 18 24
e 18 25
e 18 26
e 18 27
e 18 28
e 18 29
e 18 30
e 18 31
e 18 32
e 18 33
e 18 38
e 18 40
e 18 41
e 18 42
e 18 43
e 18 44
e 18 47
e 18 48
e 18 49
e 18 51
e 18 52
e 18 56
e 18 57
e 18 60
e 18 63
e 18 69
e 18 70
e 18 72
e 18 73
e 18 75
e 18 76
e 18 77
e 18 80
e 18 82
e 18 84
e 18 89
e 18 91
e 18 93
e 19 20
e 19 21
e 19 22
e 19 23
e 19 24
e 19 25
e 19 26
e 19 27
e 19 28
e 19 29
e 19 30
e 19 31
e 19 32
e 19 33
e 19 34
e 19 36
e 19 37
e 19 39
e 19 40
e 19 41
e 19 43
e 19 44
e 19 45
e 19 47
e 19 50
e 19 51
e 19 53
e 19 54
e 19 59
e 19 61
e 19 64
e 19 67
e 19 68
e 19 71
e 19 72
e 19 73
e 19 75
e 19 81
e 19 83
e 19 84
e 19 86
e 19 92
e 19 93
e 19 97
e 19 98
e 19 100
e 20 21
e 20 22
e 20 23
e 20 24
e 20 26
e 20 28
e 20 29
e 20 31
e 20 35
e 20 36
e 20 38
e 20 40
e 20 41
e 20 42
e 20 43
e 20 47
e 20 55
e 20 59
e 20 63
e 20 66
e 20 68
e 20 73
e 20 74
e 20 75
e 20 81
e 20 83
e 20 94
e 20 95
e 20 96
e 20 99
e 20 100
e 21 22
e 21 23
e 21 24
e 21 25
e 21 26
e 21 27
e 21 28
e 21 29
e 21 30
e 21 31
e 21 33
e 21 34
e 21 36
e 21 37
e 21 38
e 21 39
e 21 40
e 21 41
e 21 42
e 21 43
e 21 47
e 21 51
e 21 52
e 21 59
e 21 61
e 21 64
e 21 65
e 21 66
e 21 68
e 21 71
e 21 73
e 21 76
e 21 77
e 21 78
e 21 79
e 21 80
e 21 81
e 21 82
e 21 84
e 21 85
e 21 87
e 21 90
e 21 91
e 22 23
e 22 24
e 22 25
e 22 26
e 22 27
e 22 28
e 22 30
e 22 31
e 22 36
e 22 37
e 22 38
e 22 40
e 22 41
e 22 42
e 22 43
e 22 48
e 22 50
e 22 53
e 22 54
e 22 57
e 22 58
e 22 60
e 22 64
e 22 65
e 22 66
e 22 68
e 22 72
e 22 75
e 22 77
e 22 78
e 22 79
e 22 80
e 22 85
e 22 90
e 22 92
e 22 95
e 22 96
e 22 99
e 23 24
e 23 25
e 23 26
e 23 27
e 23 28
e 23 30
e 23 32
e 23 33
e 23 35
e 23 36
e 23 37
e 23 39
e 23 40
e 23 42
e 23 44
e 23 48
e 23 52
e 23 53
e 23 54
e 23 55
e 23 56
e 23 60
e 23 64
e 23 68
e 23 69
e 23 71
e 23 72
e 23 73
e 23 74
e 23 76
e 23 77
e 23 79
e 23 80
e 23 84
e 23 85
e 23 98
e 23 99
e 24 25
e 24 26
e 24 27
e 24 28
e 24 29
e 24 30
e 24 31
e 24 32
e 24 33
e 24 34
e 24 35
e 24 36
e 24 41
e 24 46
e 24 50
e 24 51
e 24 52
e 24 53
e 24 57
e 24 59
e 24 60
e 24 63
e 24 64
e 24 66
e 24 67
e 24 71
e 24 73
e 24 74
e 24 75
e 24 76
e 24 79
e 24 85
e 24 91
e 25 26
e 25 29
e 25 30
e 25 31
e 25 33
e 25 34
e 25 35
e 25 39
e 25 41
e 25 44
e 25 46
e 25 47
e 25 49
e 25 50
e 25 52
e 25 53
e 25 56
e 25 57
e 25 58
e 25 60
e 25 61
e 25 62
e 25 63
e 25 66
e 25 70
e 25 71
e 25 76
e 25 81
e 25 83
e 25 86
e 25 87
e 25 88
e 25 89
e 25 93
e 25 95
e 25 98
e 25 99
e 26 27
e 26 29
e 26 30
e 26 32
e 26 33
e 26 34
e 26 35
e 26 36
e 26 37
e 26 38
e 26 42
e 26 43
e 26 44
e 26 46
e 26 48
e 26 55
e 26 56
e 26 57
e 26 58
e 26 61
e 26 63
e 26 67
e 26 70
e 26 71
e 26 76
e 26 77
e 26 78
e 26 79
e 26 82
e 26 86
e 26 88
e 26 89
e 26 90
e 26 98
e 26 99
e 26 100
e 27 28
e 27 29
e 27 34
e 27 35
e 27 38
e 27 39
e 27 44
e 27 45
e 27 47
e 27 48
e 27 49
e 27 50
e 27 58
e 27 59
e 27 67
e 27 85
e 27 90
e 28 34
e 28 36
e 28 40
e 28 43
e 28 48
e 28 59
e 28 64
e 28 77
e 28 93
e 28 95
e 28 97
e 29 30
e 29 32
e 29 33
e 29 34
e 29 38
e 29 39
e 29 40
e 29 41
e 29 42
e 29 44
e 29 46
e 29 47
e 29 48
e 29 53
e 29 54
e 29 56
e 29 58
e 29 59
e 29 76
e 29 79
e 29 84
e 29 95
e 29 100
e 30 33
e 30 34
e 30 35
e 30 36
e 30 37
e 30 38
e 30 39
e 30 42
e 30 44
e 30 46
e 30 47
e 30 48
e 30 49
e 30 51
e 30 53
e 30 54
e 30 55
e 30 56
e 30 57
e 30 63
e 30 66
e 30 67
e 30 71
e 30 73
e 30 86
e 30 95
e 31 32
e 31 33
e 31 34
e 31 35
e 31 37
e 31 38
e 31 39
e 31 40
e 31 41
e 31 42
e 31 43
e 31 45
e 31 48
e 31 50
e 31 52
e 31 54
e 31 57
e 31 58
e 31 59
e 31 65
e 31 66
e 31 67
e 31 68
e 31 70
e 31 72
e 31 74
e 31 75
e 31 76
e 31 78
e 31 82
e 31 83
e 31 85
e 31 91
e 31 96
e 31 97
e 31 98
e 32 33
e 32 34
e 32 35
e 32 40
e 32 42
e 32 48
e 32 51
e 32 53
e 32 56
e 32 59
e 32 65
e 32 69
e 32 74
e 32 75
e 32 83
e 32 87
e 32 88
e 32 91
e 32 92
e 33 34
e 33 35
e 33 36
e 33 37
e 33 39
e 33 40
e 33 41
e 33 43
e 33 44
e 33 46
e 33 48
e 33 49
e 33 50
e 33 54
e 33 57
e 33 59
e 33 64
e 33 66
e 33 68
e 33 69
e 33 70
e 33 71
e 33 75
e 33 76
e 33 77
e 33 80
e 33 87
e 33 89
e 33 92
e 33 93
e 34 39
e 34 41
e 34 43
e 34 45
e 34 48
e 34 49
e 34 53
e 34 61
e 34 62
e 34 68
e 34 70
e 34 77
e 34 80
e 34 88
e 34 91
e 35 37
e 35 39
e 35 43
e 35 48
e 35 49
e 35 50
e 35 54
e 35 57
e 35 60
e 35 63
e 35 71
e 35 72
e 35 74
e 35 81
e 35 87
e 35 88
e 36 37
e 36 39
e 36 40
e 36 49
e 36 50
e 36 51
e 36 56
e 36 57
e 36 61
e 36 64
e 36 66
e 36 76
e 36 81
e 36 85
e 36 90
e 36 94
e 37 38
e 37 39
e 37 44
e 37 47
e 37 49
e 37 51
e 37 52
e 37 54
e 37 60
e 37 61
e 37 67
e 37 70
e 37 81
e 37 83
e 37 85
e 37 86
e 37 91
e 37 92
e 37 93
e 37 95
e 37 97
e 37 99
e 38 42
e 38 45
e 38 47
e 38 50
e 38 55
e 38 60
e 38 64
e 38 71
e 38 72
e 38 73
e 38 76
e 38 80
e 38 81
e 38 82
e 38 92
e 38 94
e 38 100
e 39 40
e 39 41
e 39 42
e 39 44
e 39 47
e 39 48
e 39 69
e 39 72
e 39 75
e 39 83
e 39 85
e 39 86
e 39 93
e 39 99
e 40 41
e 40 44
e 40 45
e 40 47
e 40 50
e 40 53
e 40 55
e 40 60
e 40 62
e 40 64
e 40 65
e 40 68
e 40 69
e 40 72
e 40 74
e 40 79
e 40 87
e 40 89
e 40 90
e 40 94
e 40 97
e 41 43
e 41 44
e 41 45
e 41 46
e 41 47
e 41 49
e 41 51
e 41 52
e 41 53
e 41 55
e 41 57
e 41 62
e 41 75
e 41 78
e 41 84
e 41 86
e 41 87
e 41 89
e 41 91
e 41 93
e 41 96
e 42 45
e 42 46
e 42 49
e 42 50
e 42 59
e 42 62
e 42 63
e 42 65
e 42 66
e 42 67
e 42 70
e 42 78
e 42 83
e 42 87
e 42 94
e 42 97
e 42 100
e 43 45
e 43 54
e 43 73
e 43 84
e 43 87
e 43 91
e 44 45
e 44 50
e 44 55
e 44 60
e 44 69
e 44 71
e 44 72
e 44 73
e 44 77
e 44 82
e 44 85
e 44 89
e 44 99
e 45 49
e 45 54
e 45 55
e 45 65
e 45 69
e 45 74
e 45 80
e 45 82
e 45 93
e 45 94
e 45 95
e 45 96
e 45 99
e 46 47
e 46 53
e 46 54
e 46 56
e 46 57
e 46 59
e 46 68
e 46 71
e 46 75
e 46 95
e 47 52
e 47 53
e 47 55
e 47 71
e 47 75
e 47 76
e 47 78
e 47 88
e 47 93
e 48 50
e 48 56
e 48 58
e 48 62
e 48 78
e 48 82
e 48 85
e 48 98
e 49 52
e 49 53
e 49 55
e 49 56
e 49 58
e 49 62
e 49 65
e 49 77
e 49 85
e 49 88
e 49 90
e 49 93
e 49 97
e 49 98
e 50 55
e 50 59
e 50 65
e 50 71
e 50 79
e 50 89
e 50 98
e 51 52
e 51 54
e 51 58
e 51 59
e 51 69
e 51 86
e 52 58
e 52 61
e 52 62
e 52 67
e 52 74
e 52 78
e 52 79
e 52 81
e 52 88
e 52 96
e 52 99
e 53 55
e 53 58
e 53 60
e 53 65
e 53 66
e 53 67
e 53 69
e 53 73
e 53 74
e 53 77
e 53 79
e 53 83
e 53 84
e 53 88
e 53 90
e 53 95
e 53 97
e 53 99
e 53 100
e 54 56
e 54 70
e 54 74
e 54 75
e 54 77
e 54 80
e 54 95
e 55 58
e 55 62
e 55 63
e 55 75
e 55 89
e 55 92
e 55 94
e 56 63
e 56 64
e 56 68
e 56 98
e 57 63
e 57 65
e 57 68
e 57 73
e 57 84
e 57 88
e 57 89
e 57 94
e 57 95
e 58 60
e 58 61
e 58 63
e 58 67
e 58 86
e 58 97
e 59 61
e 59 66
e 59 69
e 59 74
e 59 82
e 59 90
e 60 61
e 60 66
e 60 72
e 60 77
e 60 96
e 61 62
e 61 63
e 61 64
e 61 70
e 61 72
e 61 81
e 61 84
e 61 92
e 61 95
e 61 100
e 62 68
e 62 79
e 62 86
e 62 89
e 62 92
e 63 67
e 63 76
e 63 80
e 63 83
e 63 88
e 63 91
e 63 93
e 64 65
e 64 69
e 64 73
e 64 75
e 64 88
e 65 67
e 65 70
e 65 81
e 65 86
e 65 88
e 65 91
e 66 70
e 66 73
e 66 78
e 66 80
e 66 89
e 67 78
e 67 79
e 67 83
e 67 85
e 67 100
e 68 69
e 68 72
e 68 75
e 68 80
e 68 92
e 68 94
e 68 99
e 69 78
e 69 80
e 69 90
e 69 91
e 69 93
e 69 98
e 70 72
e 70 77
e 70 80
e 70 91
e 70 93
e 70 99
e 70 100
e 71 79
e 71 94
e 71 100
e 72 74
e 72 79
e 72 82
e 73 90
e 74 79
e 74 82
e 74 85
e 74 92
e 75 90
e 75 92
e 75 99
e 76 90
e 76 95
e 76 96
e 77 78
e 77 91
e 78 80
e 78 92
e 78 94
e 78 96
e 79 86
e 79 89
e 80 82
e 80 84
e 80 86
e 80 91
e 81 96
e 82 90
e 82 94
e 82 96
e 82 97
e 82 99
e 83 87
e 83 89
e 83 96
e 83 97
e 85 92
e 86 87
e 86 99
e 87 94
e 88 89
e 88 94
e 88 98
e 90 94
e 90 97
e 91 97
e 95 97
e 96 97
e 96 100
e 97 98
